Route #1: 1 12 34 45 16 57 20 1
Route #2: 1 21 26 8 37 50 49 35 14 1
Route #3: 1 27 33 56 59 15 41 22 54 36 1
Route #4: 1 55 30 31 3 6 46 28 1
Route #5: 1 61 39 44 32 47 2 19 48 1
Route #6: 1 23 18 38 7 53 63 24 11 1
Route #7: 1 4 42 43 10 40 5 1
Route #8: 1 58 51 52 29 13 17 1
Route #9: 1 62 9 60 25 1
cost 1884.8819337783455